letting n =  10
letting blocks =  [[1, 7], [1, 8], [1, 9], [2, 1], [2, 2], [2, 3], [2, 4], [2, 7], [2, 8], [3, 3], [4, 1], [4, 2], [4, 4], [4, 7], [4, 8], [4, 10], [5, 1], [5, 4], [5, 6], [5, 7], [6, 6], [6, 7], [7, 1], [7, 2], [7, 5], [8, 2], [8, 4], [8, 5], [9, 1], [9, 2], [9, 9], [9, 10], [10, 1], [10, 5], [10, 7], [10, 8]]
